
Gurobi 6.5.2 (linux64) logging started Tue Sep 20 21:16:19 2016


Gurobi 6.5.2 (linux64) logging started Tue Sep 20 21:16:19 2016

Optimize a model with 41 rows, 115 columns and 233 nonzeros
Coefficient statistics:
  Matrix range    [1e+00, 2e+00]
  Objective range [1e+00, 1e+02]
  Bounds range    [1e+00, 1e+00]
  RHS range       [1e+00, 1e+00]
Found heuristic solution: objective 998
Presolve removed 20 rows and 18 columns
Presolve time: 0.00s
Presolved: 21 rows, 97 columns, 194 nonzeros
Variable types: 0 continuous, 97 integer (97 binary)

Root relaxation: objective 5.505000e+02, 26 iterations, 0.00 seconds

    Nodes    |    Current Node    |     Objective Bounds      |     Work
 Expl Unexpl |  Obj  Depth IntInf | Incumbent    BestBd   Gap | It/Node Time

     0     0  550.50000    0    8  998.00000  550.50000  44.8%     -    0s
H    0     0                     788.0000000  550.50000  30.1%     -    0s
     0     0  558.00000    0   10  788.00000  558.00000  29.2%     -    0s
     0     0  562.66667    0    9  788.00000  562.66667  28.6%     -    0s
     0     0  562.66667    0    6  788.00000  562.66667  28.6%     -    0s
     0     0  562.66667    0    6  788.00000  562.66667  28.6%     -    0s
     0     2  562.66667    0    6  788.00000  562.66667  28.6%     -    0s
H   42    19                     592.0000000  568.00000  4.05%   3.2    0s
H  124     0                     587.0000000  570.00000  2.90%   3.0    0s
*  175    16               9     581.0000000  572.50000  1.46%   3.0    0s

Cutting planes:
  Gomory: 2
  Cover: 3
  MIR: 1
  Zero half: 2
  Lazy constraints: 61

Explored 229 nodes (695 simplex iterations) in 0.02 seconds
Thread count was 8 (of 8 available processors)

Optimal solution found (tolerance 1.00e-04)
Best objective 5.810000000000e+02, best bound 5.810000000000e+02, gap 0.0%
